32 32 -2
32 2 15
2 2 -14
2 7 78
6 21 89
6 6 -40
6 7 2
38 21 17
38 38 -3
7 48 2
7 7 -51
15 27 55
15 21 45
15 15 -49
48 48 -55
48 19 78
49 49 -19
49 27 65
19 19 -26
21 21 -16
23 27 70
23 23 -15
27 27 -142
